c pcminimize - minimizing a CNF with respect to propagation completeness by iterative removing of absorbed clauses.
c Petr Kucera, 2016-2021
c Version 2.7, revision 59, git hash 4910a71, date 2024-07-16 20:17:42 +0200
p cnf 362 491
251 -252 0
128 -252 0
240 -253 0
-128 -253 0
252 253 -254 0
57 -255 0
171 -255 0
256 -257 0
-171 -257 0
255 257 -258 0
-65 -259 0
-163 -259 0
-203 -259 0
254 -260 0
258 -260 0
259 -260 0
260 -262 0
261 -262 0
262 -263 0
94 -263 0
240 -264 0
163 -264 0
251 -265 0
-163 -265 0
264 265 -266 0
266 -267 0
128 -267 0
240 -269 0
268 -269 0
269 -270 0
-128 -270 0
267 270 -271 0
271 -273 0
272 -273 0
256 -273 0
273 -276 0
274 -276 0
275 -276 0
276 -277 0
-94 -277 0
231 -279 0
280 -281 0
-231 -281 0
-86 -283 0
96 -283 0
284 -285 0
-96 -285 0
283 285 -286 0
287 -288 0
83 -288 0
160 -289 0
-83 -289 0
288 289 -290 0
71 -291 0
292 -298 0
293 -298 0
294 -298 0
295 -298 0
296 -298 0
297 -298 0
278 -299 0
282 -299 0
286 -299 0
290 -299 0
298 -299 0
237 -313 0
-86 -315 0
314 -315 0
315 -316 0
96 -316 0
284 -317 0
317 -318 0
-96 -318 0
316 318 -319 0
-71 -320 0
163 -320 0
240 -320 0
319 -321 0
320 -321 0
321 -324 0
322 -324 0
323 -324 0
324 -325 0
150 -325 0
286 -328 0
266 -328 0
326 -328 0
327 -328 0
328 -329 0
-150 -329 0
290 -331 0
223 -331 0
-160 -332 0
332 -333 0
-223 -333 0
294 -335 0
146 -335 0
31 -336 0
-146 -336 0
-57 -338 0
128 -338 0
203 -338 0
293 -339 0
292 -339 0
296 -339 0
274 -339 0
297 -339 0
282 -340 0
330 -340 0
334 -340 0
337 -340 0
339 -340 0
-237 -347 0
348 -349 0
-1 0
2 0
3 0
4 0
-5 0
-6 0
-7 0
-8 0
-9 0
10 0
-11 0
-12 0
13 0
14 0
-15 0
16 0
17 0
-18 0
-19 0
20 0
21 0
-22 0
23 0
24 0
25 0
-27 0
-28 0
29 0
30 0
-32 0
-33 0
34 0
35 0
36 0
38 0
-39 0
40 0
41 0
42 0
-43 0
44 0
-45 0
-46 0
48 0
-49 0
-50 0
51 0
-52 0
-53 0
-54 0
55 0
-56 0
-58 0
59 0
60 0
-61 0
-62 0
-63 0
66 0
-67 0
-68 0
69 0
-70 0
73 0
-74 0
75 0
76 0
-77 0
78 0
-79 0
80 0
81 0
82 0
84 0
-85 0
87 0
88 0
89 0
-90 0
-91 0
-92 0
93 0
97 0
-98 0
99 0
100 0
101 0
102 0
-103 0
104 0
-105 0
-106 0
107 0
108 0
109 0
-110 0
-111 0
-112 0
113 0
114 0
115 0
118 0
-119 0
-120 0
121 0
122 0
123 0
124 0
125 0
126 0
-127 0
129 0
-130 0
132 0
133 0
-134 0
135 0
-136 0
-137 0
138 0
139 0
141 0
-143 0
-144 0
-145 0
147 0
148 0
149 0
-151 0
-152 0
-153 0
154 0
155 0
-156 0
157 0
158 0
-159 0
-161 0
164 0
-165 0
166 0
-167 0
-168 0
172 0
173 0
174 0
-175 0
-176 0
-177 0
-178 0
179 0
180 0
181 0
-182 0
-183 0
185 0
186 0
187 0
188 0
190 0
191 0
192 0
-193 0
-194 0
195 0
-196 0
-197 0
-198 0
-199 0
200 0
201 0
-202 0
204 0
205 0
-206 0
207 0
-208 0
209 0
210 0
211 0
213 0
-214 0
215 0
216 0
-217 0
-218 0
-219 0
220 0
221 0
-222 0
-224 0
-225 0
226 0
227 0
228 0
-230 0
232 0
-233 0
234 0
-235 0
-236 0
238 0
-239 0
241 0
-242 0
-243 0
-244 0
-245 0
-246 0
247 0
-248 0
-249 0
-250 0
-361 362 0
-358 359 0
-351 352 0
-343 344 0
-342 343 0
-340 341 0
-338 340 0
-162 338 0
131 338 0
-95 338 0
72 338 0
26 338 0
146 336 0
-334 340 0
223 333 0
-331 334 0
-330 340 0
-329 330 0
-327 328 0
-150 325 0
-323 324 0
-64 322 0
-321 324 0
-317 318 0
-316 319 0
-315 316 0
140 314 0
-312 313 0
-328 329 0
-311 312 0
-310 312 0
-360 361 0
-305 306 0
-307 309 0
-304 306 0
-303 304 0
-302 303 0
43 349 0
184 291 0
-254 260 0
161 350 0
-356 357 0
-326 328 0
-341 343 0
-26 291 0
-37 295 0
-320 321 0
-271 273 0
218 360 0
-298 299 0
229 293 0
-273 276 0
-285 286 0
-287 288 0
-128 252 267 338 0
-299 300 0
231 281 0
-189 291 0
96 285 318 0
-264 266 0
-163 264 268 320 0
-94 263 0
-262 263 0
169 261 272 338 0
-289 290 0
193 351 0
-169 261 0
65 259 274 0
57 256 338 0
-286 299 328 0
-260 262 0
-31 294 336 0
-346 347 0
-267 271 0
-324 325 0
-170 338 0
-59 358 0
-258 260 0
-65 274 0
-336 337 0
-57 255 256 0
128 253 270 0
-333 334 0
-308 309 0
-290 299 331 0
-268 269 0
-252 254 0
83 289 0
-306 307 0
-251 252 265 0
-72 291 0
-83 288 332 0
-261 262 0
-171 255 0
-256 257 273 0
240 251 0
112 355 0
-291 299 0
-281 282 0
162 291 0
-259 260 0
-277 278 0
-269 270 0
-253 254 0
-184 338 0
-265 266 0
-255 258 0
-96 283 316 0
-270 271 0
-276 277 0
-272 273 0
-274 276 339 0
-223 291 331 0
-240 251 253 264 269 320 0
-231 279 0
-279 282 0
-344 345 0
-339 340 0
-179 305 338 0
86 283 284 315 0
212 280 0
-294 298 335 0
163 259 265 268 0
-280 281 0
-284 285 317 0
95 291 0
189 338 0
27 353 0
-288 290 0
116 323 0
31 294 0
-318 319 0
-257 258 0
-131 291 0
-86 284 0
-309 310 0
-146 291 335 0
-353 354 0
-322 324 0
-314 315 0
111 311 342 0
-335 337 0
-116 291 323 326 0
-345 346 0
-266 267 328 0
-275 276 0
-278 299 0
-283 286 0
-332 333 0
-47 292 0
-319 321 0
47 292 0
-229 293 0
-355 356 0
-295 298 0
-117 296 0
117 296 0
-337 340 0
-142 297 0
142 297 0
-78 308 338 0
170 300 0
-300 301 0
-301 302 0
